\ This file has been generated by DOcplex
\ ENCODING=ISO-8859-1
\Problem name: AMC Quadratic Optimization

Minimize
 obj: x_0 + x_1 + x_2 + x_3 + x_4 + y_0 + y_1 + y_2 + y_3 + y_4 + u_0 + [
      2 x_0*y_3 + 2 x_2*y_4 + 2 x_3*y_1 + 2 x_4*y_2 + 2 x_4*y_4 ]/2
Subject To
 Constraint: 26 x_0 + 79 x_2 + 6 y_0 + 88 y_2 + 93 u_0 = 943
 Constraint#1: 113 x_1 + 81 x_3 + 70 y_1 + 25 y_3 + 74 u_0 = 730

Bounds
 0 <= x_0 <= 1
 0 <= x_1 <= 1
 0 <= x_2 <= 1
 0 <= x_3 <= 1
 0 <= x_4 <= 1
 0 <= y_0 <= 1
 0 <= y_1 <= 1
 0 <= y_2 <= 1
 0 <= y_3 <= 1
 0 <= y_4 <= 1

Binaries
 x_0 x_1 x_2 x_3 x_4 y_0 y_1 y_2 y_3 y_4
End
